c Sudoku solution
p cnf 729 0
112 0
137 0
148 0
174 0
216 0
297 0
324 0
388 0
425 0
469 0
483 0
492 0
579 0
623 0
642 0
658 0
734 0
765 0
776 0
844 0
875 0
887 0
913 0
935 0
315 0
946 0
961 0
868 0
999 0
984 0
531 0
522 0
832 0
826 0
189 0
121 0
339 0
233 0
228 0
927 0
729 0
718 0
811 0
978 0
782 0
791 0
893 0
952 0
859 0
438 0
636 0
619 0
456 0
441 0
414 0
517 0
477 0
671 0
598 0
694 0
586 0
685 0
667 0
351 0
249 0
545 0
757 0
743 0
347 0
272 0
281 0
373 0
396 0
195 0
153 0
166 0
255 0
264 0
362 0
554 0
563 0
